0000000000000000
0000000000000000
0000000000000000
0000000000000000
0000010000000000
0001111111111000
0011111111110000
0000000011100000
0000000011100000
0000000011100000
0000000011100000
0000000011100000
0000000011000000
0000000010000000
0000000000000000
0000000000000000
